NAME VRP_AIMMS
ROWS
 N  OBJ
 E  c0      
 E  c1      
 E  c2      
 E  c3      
 E  c4      
 E  c5      
 E  c6      
 E  c7      
 E  c8      
 E  c9      
 E  c10     
 E  c11     
 E  c12     
 E  c13     
 L  c14     
 G  c15     
 L  c16     
 L  c17     
 G  c18     
 L  c19     
 L  c20     
 G  c21     
 L  c22     
 L  c23     
 G  c24     
 L  c25     
 L  c26     
 G  c27     
 L  c28     
 L  c29     
 G  c30     
 L  c31     
 L  c32     
 G  c33     
 L  c34     
 L  c35     
 G  c36     
 L  c37     
 G  c38     
 L  c39     
 G  c40     
 L  c41     
 G  c42     
 L  c43     
 G  c44     
 L  c45     
 G  c46     
 L  c47     
 G  c48     
 L  c49     
 G  c50     
 G  c51     
 G  c52     
 G  c53     
 G  c54     
 G  c55     
 G  c56     
 L  c57     
 L  c58     
 L  c59     
 L  c60     
 L  c61     
 L  c62     
 L  c63     
 G  c64     
 G  c65     
 G  c66     
 G  c67     
 G  c68     
 G  c69     
 G  c70     
 G  c71     
 G  c72     
 G  c73     
 G  c74     
 G  c75     
 G  c76     
 G  c77     
 G  c78     
 G  c79     
 G  c80     
 G  c81     
 G  c82     
 G  c83     
 G  c84     
 G  c85     
 G  c86     
 G  c87     
 G  c88     
 G  c89     
 G  c90     
 G  c91     
 G  c92     
 G  c93     
 G  c94     
 G  c95     
 G  c96     
 G  c97     
 G  c98     
 G  c99     
 G  c100    
 G  c101    
 G  c102    
 G  c103    
 G  c104    
 G  c105    
 G  c106    
 G  c107    
 G  c108    
 G  c109    
 G  c110    
 G  c111    
 G  c112    
 G  c113    
 G  c114    
 G  c115    
 G  c116    
 G  c117    
 G  c118    
 G  c119    
 G  c120    
 G  c121    
 G  c122    
 G  c123    
 G  c124    
 G  c125    
 G  c126    
 G  c127    
 G  c128    
 G  c129    
 G  c130    
 G  c131    
 G  c132    
 G  c133    
 G  c134    
 G  c135    
 G  c136    
 G  c137    
 G  c138    
 G  c139    
 G  c140    
 G  c141    
 G  c142    
 G  c143    
 G  c144    
 G  c145    
 G  c146    
 G  c147    
 G  c148    
 G  c149    
 G  c150    
 G  c151    
 G  c152    
 G  c153    
 G  c154    
 G  c155    
 G  c156    
 G  c157    
 G  c158    
 G  c159    
 G  c160    
 G  c161    
 G  c162    
 G  c163    
 G  c164    
 G  c165    
 G  c166    
 G  c167    
 G  c168    
 G  c169    
 G  c170    
 G  c171    
 G  c172    
 G  c173    
COLUMNS
    MARKER    'MARKER'                 'INTORG'
    w0        OBJ       0
    w1        c15       1
    w1        c16       1
    w1        c17       1
    w1        c71       1
    w1        c84       -1
    w1        c86       -1
    w1        c88       -1
    w1        c90       -1
    w1        c92       -1
    w1        c94       -1
    w1        c96       1
    w1        c109      1
    w1        c122      1
    w1        c135      1
    w1        c148      1
    w1        c161      1
    w2        c18       1
    w2        c19       1
    w2        c20       1
    w2        c72       1
    w2        c84       1
    w2        c96       -1
    w2        c99       -1
    w2        c101      -1
    w2        c103      -1
    w2        c105      -1
    w2        c107      -1
    w2        c111      1
    w2        c124      1
    w2        c137      1
    w2        c150      1
    w2        c163      1
    w3        c21       1
    w3        c22       1
    w3        c23       1
    w3        c73       1
    w3        c86       1
    w3        c99       1
    w3        c109      -1
    w3        c111      -1
    w3        c114      -1
    w3        c116      -1
    w3        c118      -1
    w3        c120      -1
    w3        c126      1
    w3        c139      1
    w3        c152      1
    w3        c165      1
    w4        c24       1
    w4        c25       1
    w4        c26       1
    w4        c74       1
    w4        c88       1
    w4        c101      1
    w4        c114      1
    w4        c122      -1
    w4        c124      -1
    w4        c126      -1
    w4        c129      -1
    w4        c131      -1
    w4        c133      -1
    w4        c141      1
    w4        c154      1
    w4        c167      1
    w5        c27       1
    w5        c28       1
    w5        c29       1
    w5        c75       1
    w5        c90       1
    w5        c103      1
    w5        c116      1
    w5        c129      1
    w5        c135      -1
    w5        c137      -1
    w5        c139      -1
    w5        c141      -1
    w5        c144      -1
    w5        c146      -1
    w5        c156      1
    w5        c169      1
    w6        c30       1
    w6        c31       1
    w6        c32       1
    w6        c92       1
    w6        c105      1
    w6        c118      1
    w6        c131      1
    w6        c144      1
    w6        c148      -1
    w6        c150      -1
    w6        c152      -1
    w6        c154      -1
    w6        c156      -1
    w6        c159      -1
    w6        c171      1
    w7        c33       1
    w7        c34       1
    w7        c35       1
    w7        c94       1
    w7        c107      1
    w7        c120      1
    w7        c133      1
    w7        c146      1
    w7        c159      1
    w7        c161      -1
    w7        c163      -1
    w7        c165      -1
    w7        c167      -1
    w7        c169      -1
    w7        c171      -1
    MARKER    'MARKER'                 'INTEND'
    x0        OBJ       0
    x1        c36       1
    x1        c37       1
    x1        c50       1
    x1        c57       1
    x1        c64       1
    x1        c76       1
    x1        c85       -1
    x1        c87       -1
    x1        c89       -1
    x1        c91       -1
    x1        c93       -1
    x1        c95       -1
    x1        c97       1
    x1        c110      1
    x1        c123      1
    x1        c136      1
    x1        c149      1
    x1        c162      1
    x2        c38       1
    x2        c39       1
    x2        c51       1
    x2        c58       1
    x2        c65       1
    x2        c77       1
    x2        c85       1
    x2        c97       -1
    x2        c100      -1
    x2        c102      -1
    x2        c104      -1
    x2        c106      -1
    x2        c108      -1
    x2        c112      1
    x2        c125      1
    x2        c138      1
    x2        c151      1
    x2        c164      1
    x3        c40       1
    x3        c41       1
    x3        c52       1
    x3        c59       1
    x3        c66       1
    x3        c78       1
    x3        c87       1
    x3        c100      1
    x3        c110      -1
    x3        c112      -1
    x3        c115      -1
    x3        c117      -1
    x3        c119      -1
    x3        c121      -1
    x3        c127      1
    x3        c140      1
    x3        c153      1
    x3        c166      1
    x4        c42       1
    x4        c43       1
    x4        c53       1
    x4        c60       1
    x4        c67       1
    x4        c79       1
    x4        c89       1
    x4        c102      1
    x4        c115      1
    x4        c123      -1
    x4        c125      -1
    x4        c127      -1
    x4        c130      -1
    x4        c132      -1
    x4        c134      -1
    x4        c142      1
    x4        c155      1
    x4        c168      1
    x5        c44       1
    x5        c45       1
    x5        c54       1
    x5        c61       1
    x5        c68       1
    x5        c80       1
    x5        c91       1
    x5        c104      1
    x5        c117      1
    x5        c130      1
    x5        c136      -1
    x5        c138      -1
    x5        c140      -1
    x5        c142      -1
    x5        c145      -1
    x5        c147      -1
    x5        c157      1
    x5        c170      1
    x6        c46       1
    x6        c47       1
    x6        c55       1
    x6        c62       1
    x6        c69       1
    x6        c81       1
    x6        c93       1
    x6        c106      1
    x6        c119      1
    x6        c132      1
    x6        c145      1
    x6        c149      -1
    x6        c151      -1
    x6        c153      -1
    x6        c155      -1
    x6        c157      -1
    x6        c160      -1
    x6        c172      1
    x7        c48       1
    x7        c49       1
    x7        c56       1
    x7        c63       1
    x7        c70       1
    x7        c82       1
    x7        c95       1
    x7        c108      1
    x7        c121      1
    x7        c134      1
    x7        c147      1
    x7        c160      1
    x7        c162      -1
    x7        c164      -1
    x7        c166      -1
    x7        c168      -1
    x7        c170      -1
    x7        c172      -1
    MARKER    'MARKER'                 'INTORG'
    y0,0      OBJ       0
    y0,1      OBJ       1235
    y0,1      c0        1
    y0,1      c14       1
    y0,1      c17       926
    y0,1      c50       -5.8142043800579600e+01
    y0,2      OBJ       1285
    y0,2      c1        1
    y0,2      c14       1
    y0,2      c20       987
    y0,2      c51       -7.9350987444528258e+01
    y0,3      OBJ       1415
    y0,3      c2        1
    y0,3      c14       1
    y0,3      c23       905
    y0,3      c52       -8.7285130813467802e+01
    y0,4      OBJ       1350
    y0,4      c3        1
    y0,4      c14       1
    y0,4      c26       969
    y0,4      c53       -7.4881181363222993e+01
    y0,5      OBJ       1265
    y0,5      c4        1
    y0,5      c14       1
    y0,5      c29       934
    y0,5      c54       -8.5488423170727813e+01
    y0,6      OBJ       1370
    y0,6      c5        1
    y0,6      c14       1
    y0,6      c32       958
    y0,6      c55       -7.4929890385971888e+01
    y0,7      OBJ       1445
    y0,7      c6        1
    y0,7      c14       1
    y0,7      c35       928
    y0,7      c56       -8.6852140772683285e+01
    y1,0      OBJ       235
    y1,0      c7        1
    y1,0      c57       5.8357956199420400e+01
    y1,0      c64       5.8357956199420400e+01
    y1,1      c83       -1.1357956199420403e+01
    y1,2      OBJ       480
    y1,2      c1        1
    y1,2      c7        1
    y1,2      c84       -1000
    y1,2      c85       -1.0735795619942040e+02
    y1,2      c96       -913
    y1,3      OBJ       635
    y1,3      c2        1
    y1,3      c7        1
    y1,3      c86       -1000
    y1,3      c87       -1.4535795619942041e+02
    y1,3      c109      -831
    y1,4      OBJ       315
    y1,4      c3        1
    y1,4      c7        1
    y1,4      c88       -1000
    y1,4      c89       -7.6357956199420400e+01
    y1,4      c122      -895
    y1,5      OBJ       420
    y1,5      c4        1
    y1,5      c7        1
    y1,5      c90       -1000
    y1,5      c91       -9.3357956199420400e+01
    y1,5      c135      -860
    y1,6      OBJ       515
    y1,6      c5        1
    y1,6      c7        1
    y1,6      c92       -1000
    y1,6      c93       -1.2335795619942040e+02
    y1,6      c148      -884
    y1,7      OBJ       320
    y1,7      c6        1
    y1,7      c94       -1000
    y1,7      c95       -7.7357956199420400e+01
    y1,7      c161      -854
    y2,0      OBJ       285
    y2,0      c8        1
    y2,0      c58       7.9149012555471742e+01
    y2,0      c65       7.9149012555471742e+01
    y2,1      OBJ       480
    y2,1      c0        1
    y2,1      c8        1
    y2,1      c84       -913
    y2,1      c96       -1000
    y2,1      c97       -1.0714901255547174e+02
    y2,2      c98       -1.1149012555471741e+01
    y2,3      OBJ       250
    y2,3      c2        1
    y2,3      c8        1
    y2,3      c99       -1000
    y2,3      c100      -8.1149012555471742e+01
    y2,3      c111      -892
    y2,4      OBJ       225
    y2,4      c3        1
    y2,4      c8        1
    y2,4      c101      -1000
    y2,4      c102      -6.3149012555471742e+01
    y2,4      c124      -956
    y2,5      OBJ       70
    y2,5      c4        1
    y2,5      c8        1
    y2,5      c103      -1000
    y2,5      c104      -3.5149012555471742e+01
    y2,5      c137      -921
    y2,6      OBJ       595
    y2,6      c5        1
    y2,6      c8        1
    y2,6      c105      -1000
    y2,6      c106      -1.4414901255547173e+02
    y2,6      c150      -945
    y2,7      OBJ       695
    y2,7      c6        1
    y2,7      c107      -1000
    y2,7      c108      -1.4714901255547173e+02
    y2,7      c163      -915
    y3,0      OBJ       415
    y3,0      c9        1
    y3,0      c59       8.7214869186532198e+01
    y3,0      c66       8.7214869186532198e+01
    y3,1      OBJ       635
    y3,1      c0        1
    y3,1      c9        1
    y3,1      c86       -831
    y3,1      c109      -1000
    y3,1      c110      -1.4521486918653218e+02
    y3,2      OBJ       250
    y3,2      c1        1
    y3,2      c9        1
    y3,2      c99       -892
    y3,2      c111      -1000
    y3,2      c112      -8.1214869186532198e+01
    y3,3      c113      -1.1214869186532194e+01
    y3,4      OBJ       470
    y3,4      c3        1
    y3,4      c9        1
    y3,4      c114      -1000
    y3,4      c115      -1.1121486918653220e+02
    y3,4      c126      -874
    y3,5      OBJ       335
    y3,5      c4        1
    y3,5      c9        1
    y3,5      c116      -1000
    y3,5      c117      -8.7214869186532198e+01
    y3,5      c139      -839
    y3,6      OBJ       605
    y3,6      c5        1
    y3,6      c9        1
    y3,6      c118      -1000
    y3,6      c119      -1.4021486918653218e+02
    y3,6      c152      -863
    y3,7      OBJ       845
    y3,7      c6        1
    y3,7      c120      -1000
    y3,7      c121      -1.7921486918653218e+02
    y3,7      c165      -833
    y4,0      OBJ       350
    y4,0      c10       1
    y4,0      c60       7.3618818636777007e+01
    y4,0      c67       7.3618818636777007e+01
    y4,1      OBJ       315
    y4,1      c0        1
    y4,1      c10       1
    y4,1      c88       -895
    y4,1      c122      -1000
    y4,1      c123      -7.5618818636777007e+01
    y4,2      OBJ       225
    y4,2      c1        1
    y4,2      c10       1
    y4,2      c101      -956
    y4,2      c124      -1000
    y4,2      c125      -6.2618818636777007e+01
    y4,3      OBJ       470
    y4,3      c2        1
    y4,3      c10       1
    y4,3      c114      -874
    y4,3      c126      -1000
    y4,3      c127      -1.1061881863677701e+02
    y4,4      c128      -1.0618818636777009e+01
    y4,5      OBJ       165
    y4,5      c4        1
    y4,5      c10       1
    y4,5      c129      -1000
    y4,5      c130      -4.9618818636777007e+01
    y4,5      c141      -903
    y4,6      OBJ       625
    y4,6      c5        1
    y4,6      c10       1
    y4,6      c131      -1000
    y4,6      c132      -1.3461881863677701e+02
    y4,6      c154      -927
    y4,7      OBJ       535
    y4,7      c6        1
    y4,7      c133      -1000
    y4,7      c134      -1.1761881863677701e+02
    y4,7      c167      -897
    y5,0      OBJ       265
    y5,0      c11       1
    y5,0      c61       8.5011576829272187e+01
    y5,0      c68       8.5011576829272187e+01
    y5,1      OBJ       420
    y5,1      c0        1
    y5,1      c11       1
    y5,1      c90       -860
    y5,1      c135      -1000
    y5,1      c136      -9.3011576829272187e+01
    y5,2      OBJ       70
    y5,2      c1        1
    y5,2      c11       1
    y5,2      c103      -921
    y5,2      c137      -1000
    y5,2      c138      -3.5011576829272180e+01
    y5,3      OBJ       335
    y5,3      c2        1
    y5,3      c11       1
    y5,3      c116      -839
    y5,3      c139      -1000
    y5,3      c140      -8.7011576829272187e+01
    y5,4      OBJ       165
    y5,4      c3        1
    y5,4      c11       1
    y5,4      c129      -903
    y5,4      c141      -1000
    y5,4      c142      -5.0011576829272180e+01
    y5,5      c143      -1.1011576829272181e+01
    y5,6      OBJ       690
    y5,6      c5        1
    y5,6      c11       1
    y5,6      c144      -1000
    y5,6      c145      -1.4601157682927217e+02
    y5,6      c156      -892
    y5,7      OBJ       635
    y5,7      c6        1
    y5,7      c146      -1000
    y5,7      c147      -1.3401157682927220e+02
    y5,7      c169      -862
    y6,0      OBJ       370
    y6,0      c12       1
    y6,0      c62       7.3570109614028112e+01
    y6,0      c69       7.3570109614028112e+01
    y6,1      OBJ       515
    y6,1      c0        1
    y6,1      c12       1
    y6,1      c92       -884
    y6,1      c148      -1000
    y6,1      c149      -1.2257010961402811e+02
    y6,2      OBJ       595
    y6,2      c1        1
    y6,2      c12       1
    y6,2      c105      -945
    y6,2      c150      -1000
    y6,2      c151      -1.4357010961402810e+02
    y6,3      OBJ       605
    y6,3      c2        1
    y6,3      c12       1
    y6,3      c118      -863
    y6,3      c152      -1000
    y6,3      c153      -1.3957010961402810e+02
    y6,4      OBJ       625
    y6,4      c3        1
    y6,4      c12       1
    y6,4      c131      -927
    y6,4      c154      -1000
    y6,4      c155      -1.3457010961402813e+02
    y6,5      OBJ       690
    y6,5      c4        1
    y6,5      c12       1
    y6,5      c144      -892
    y6,5      c156      -1000
    y6,5      c157      -1.4557010961402810e+02
    y6,6      c158      -1.0570109614028111e+01
    y6,7      OBJ       605
    y6,7      c6        1
    y6,7      c159      -1000
    y6,7      c160      -1.2857010961402813e+02
    y6,7      c171      -886
    y7,0      OBJ       445
    y7,0      c13       1
    y7,0      c63       8.5647859227316715e+01
    y7,0      c70       8.5647859227316715e+01
    y7,1      OBJ       320
    y7,1      c13       1
    y7,1      c94       -854
    y7,1      c161      -1000
    y7,1      c162      -7.6647859227316715e+01
    y7,2      OBJ       695
    y7,2      c13       1
    y7,2      c107      -915
    y7,2      c163      -1000
    y7,2      c164      -1.4664785922731673e+02
    y7,3      OBJ       845
    y7,3      c13       1
    y7,3      c120      -833
    y7,3      c165      -1000
    y7,3      c166      -1.7864785922731673e+02
    y7,4      OBJ       535
    y7,4      c13       1
    y7,4      c133      -897
    y7,4      c167      -1000
    y7,4      c168      -1.1764785922731672e+02
    y7,5      OBJ       635
    y7,5      c13       1
    y7,5      c146      -862
    y7,5      c169      -1000
    y7,5      c170      -1.3364785922731670e+02
    y7,6      OBJ       605
    y7,6      c13       1
    y7,6      c159      -886
    y7,6      c171      -1000
    y7,6      c172      -1.2864785922731670e+02
    y7,7      c173      -1.0647859227316715e+01
    MARKER    'MARKER'                 'INTEND'
RHS
    RHS1      c0        1
    RHS1      c1        1
    RHS1      c2        1
    RHS1      c3        1
    RHS1      c4        1
    RHS1      c5        1
    RHS1      c6        1
    RHS1      c7        1
    RHS1      c8        1
    RHS1      c9        1
    RHS1      c10       1
    RHS1      c11       1
    RHS1      c12       1
    RHS1      c13       1
    RHS1      c14       6
    RHS1      c15       74
    RHS1      c16       1000
    RHS1      c17       1000
    RHS1      c18       13
    RHS1      c19       1000
    RHS1      c20       1000
    RHS1      c21       95
    RHS1      c22       1000
    RHS1      c23       1000
    RHS1      c24       31
    RHS1      c25       1000
    RHS1      c26       1000
    RHS1      c27       66
    RHS1      c28       1000
    RHS1      c29       1000
    RHS1      c30       42
    RHS1      c31       1000
    RHS1      c32       1000
    RHS1      c33       72
    RHS1      c34       1000
    RHS1      c35       1000
    RHS1      c36       8.5795619942040280e-01
    RHS1      c37       1.3579561994204028e+00
    RHS1      c38       6.4901255547174008e-01
    RHS1      c39       1.1490125554717401e+00
    RHS1      c40       7.1486918653219389e-01
    RHS1      c41       1.2148691865321939e+00
    RHS1      c42       1.1881863677700899e-01
    RHS1      c43       6.1881863677700899e-01
    RHS1      c44       5.1157682927218084e-01
    RHS1      c45       1.0115768292721810e+00
    RHS1      c46       7.0109614028109890e-02
    RHS1      c47       5.7010961402810989e-01
    RHS1      c48       1.4785922731671564e-01
    RHS1      c49       6.4785922731671564e-01
    RHS1      c50       8.5795619942040280e-01
    RHS1      c51       6.4901255547174008e-01
    RHS1      c52       7.1486918653219389e-01
    RHS1      c53       1.1881863677700899e-01
    RHS1      c54       5.1157682927218084e-01
    RHS1      c55       7.0109614028109890e-02
    RHS1      c56       1.4785922731671564e-01
    RHS1      c57       1.3579561994204028e+00
    RHS1      c58       1.1490125554717401e+00
    RHS1      c59       1.2148691865321939e+00
    RHS1      c60       6.1881863677700899e-01
    RHS1      c61       1.0115768292721810e+00
    RHS1      c62       5.7010961402810989e-01
    RHS1      c63       6.4785922731671564e-01
    RHS1      c64       1.3579561994204028e+00
    RHS1      c65       1.1490125554717401e+00
    RHS1      c66       1.2148691865321939e+00
    RHS1      c67       6.1881863677700899e-01
    RHS1      c68       1.0115768292721810e+00
    RHS1      c69       5.7010961402810989e-01
    RHS1      c70       6.4785922731671564e-01
    RHS1      c83       -1.3579561994204028e+00
    RHS1      c84       -987
    RHS1      c85       -1.3579561994204028e+00
    RHS1      c86       -905
    RHS1      c87       -1.3579561994204028e+00
    RHS1      c88       -969
    RHS1      c89       -1.3579561994204028e+00
    RHS1      c90       -934
    RHS1      c91       -1.3579561994204028e+00
    RHS1      c92       -958
    RHS1      c93       -1.3579561994204028e+00
    RHS1      c94       -928
    RHS1      c95       -1.3579561994204028e+00
    RHS1      c96       -926
    RHS1      c97       -1.1490125554717401e+00
    RHS1      c98       -1.1490125554717401e+00
    RHS1      c99       -905
    RHS1      c100      -1.1490125554717401e+00
    RHS1      c101      -969
    RHS1      c102      -1.1490125554717401e+00
    RHS1      c103      -934
    RHS1      c104      -1.1490125554717401e+00
    RHS1      c105      -958
    RHS1      c106      -1.1490125554717401e+00
    RHS1      c107      -928
    RHS1      c108      -1.1490125554717401e+00
    RHS1      c109      -926
    RHS1      c110      -1.2148691865321939e+00
    RHS1      c111      -987
    RHS1      c112      -1.2148691865321939e+00
    RHS1      c113      -1.2148691865321939e+00
    RHS1      c114      -969
    RHS1      c115      -1.2148691865321939e+00
    RHS1      c116      -934
    RHS1      c117      -1.2148691865321939e+00
    RHS1      c118      -958
    RHS1      c119      -1.2148691865321939e+00
    RHS1      c120      -928
    RHS1      c121      -1.2148691865321939e+00
    RHS1      c122      -926
    RHS1      c123      -6.1881863677700899e-01
    RHS1      c124      -987
    RHS1      c125      -6.1881863677700899e-01
    RHS1      c126      -905
    RHS1      c127      -6.1881863677700899e-01
    RHS1      c128      -6.1881863677700899e-01
    RHS1      c129      -934
    RHS1      c130      -6.1881863677700899e-01
    RHS1      c131      -958
    RHS1      c132      -6.1881863677700899e-01
    RHS1      c133      -928
    RHS1      c134      -6.1881863677700899e-01
    RHS1      c135      -926
    RHS1      c136      -1.0115768292721810e+00
    RHS1      c137      -987
    RHS1      c138      -1.0115768292721810e+00
    RHS1      c139      -905
    RHS1      c140      -1.0115768292721810e+00
    RHS1      c141      -969
    RHS1      c142      -1.0115768292721810e+00
    RHS1      c143      -1.0115768292721810e+00
    RHS1      c144      -958
    RHS1      c145      -1.0115768292721810e+00
    RHS1      c146      -928
    RHS1      c147      -1.0115768292721810e+00
    RHS1      c148      -926
    RHS1      c149      -5.7010961402810989e-01
    RHS1      c150      -987
    RHS1      c151      -5.7010961402810989e-01
    RHS1      c152      -905
    RHS1      c153      -5.7010961402810989e-01
    RHS1      c154      -969
    RHS1      c155      -5.7010961402810989e-01
    RHS1      c156      -934
    RHS1      c157      -5.7010961402810989e-01
    RHS1      c158      -5.7010961402810989e-01
    RHS1      c159      -928
    RHS1      c160      -5.7010961402810989e-01
    RHS1      c161      -926
    RHS1      c162      -6.4785922731671564e-01
    RHS1      c163      -987
    RHS1      c164      -6.4785922731671564e-01
    RHS1      c165      -905
    RHS1      c166      -6.4785922731671564e-01
    RHS1      c167      -969
    RHS1      c168      -6.4785922731671564e-01
    RHS1      c169      -934
    RHS1      c170      -6.4785922731671564e-01
    RHS1      c171      -958
    RHS1      c172      -6.4785922731671564e-01
    RHS1      c173      -6.4785922731671564e-01
BOUNDS
 UP BND1      w0        6
 UP BND1      w1        6
 UP BND1      w2        6
 UP BND1      w3        6
 UP BND1      w4        6
 UP BND1      w5        6
 UP BND1      w6        6
 UP BND1      w7        6
 BV BND1      y0,0    
 BV BND1      y0,1    
 BV BND1      y0,2    
 BV BND1      y0,3    
 BV BND1      y0,4    
 BV BND1      y0,5    
 BV BND1      y0,6    
 BV BND1      y0,7    
 BV BND1      y1,0    
 BV BND1      y1,1    
 BV BND1      y1,2    
 BV BND1      y1,3    
 BV BND1      y1,4    
 BV BND1      y1,5    
 BV BND1      y1,6    
 BV BND1      y1,7    
 BV BND1      y2,0    
 BV BND1      y2,1    
 BV BND1      y2,2    
 BV BND1      y2,3    
 BV BND1      y2,4    
 BV BND1      y2,5    
 BV BND1      y2,6    
 BV BND1      y2,7    
 BV BND1      y3,0    
 BV BND1      y3,1    
 BV BND1      y3,2    
 BV BND1      y3,3    
 BV BND1      y3,4    
 BV BND1      y3,5    
 BV BND1      y3,6    
 BV BND1      y3,7    
 BV BND1      y4,0    
 BV BND1      y4,1    
 BV BND1      y4,2    
 BV BND1      y4,3    
 BV BND1      y4,4    
 BV BND1      y4,5    
 BV BND1      y4,6    
 BV BND1      y4,7    
 BV BND1      y5,0    
 BV BND1      y5,1    
 BV BND1      y5,2    
 BV BND1      y5,3    
 BV BND1      y5,4    
 BV BND1      y5,5    
 BV BND1      y5,6    
 BV BND1      y5,7    
 BV BND1      y6,0    
 BV BND1      y6,1    
 BV BND1      y6,2    
 BV BND1      y6,3    
 BV BND1      y6,4    
 BV BND1      y6,5    
 BV BND1      y6,6    
 BV BND1      y6,7    
 BV BND1      y7,0    
 BV BND1      y7,1    
 BV BND1      y7,2    
 BV BND1      y7,3    
 BV BND1      y7,4    
 BV BND1      y7,5    
 BV BND1      y7,6    
 BV BND1      y7,7    
ENDATA
